presolving:
   (0.2s) running MILP presolver
   (0.2s) MILP presolver found nothing
(round 1, exhaustive) 0 del vars, 0 del conss, 0 add conss, 0 chg bounds, 0 chg sides, 0 chg coeffs, 5151 upgd conss, 0 impls, 5000 clqs
   (0.6s) probing: 51/5050 (1.0%) - 0 fixings, 0 aggregations, 0 implications, 0 bound changes
   (0.6s) probing aborted: 50/50 successive totally useless probings
   (0.8s) symmetry computation started: requiring (bin +, int -, cont +), (fixed: bin -, int +, cont -)
   (0.8s) no symmetry present
presolving (2 rounds: 2 fast, 2 medium, 2 exhaustive):
 0 deleted vars, 0 deleted constraints, 0 added constraints, 0 tightened bounds, 0 added holes, 0 changed sides, 0 changed coefficients
 0 implications, 5000 cliques
presolved problem has 5050 variables (5050 bin, 0 int, 0 impl, 0 cont) and 5152 constraints
     51 constraints of type <knapsack>
   5000 constraints of type <setppc>
      1 constraints of type <linear>
    100 constraints of type <logicor>
Presolving Time: 0.77

 time | node  | left  |LP iter|LP it/n|mem/heur|mdpt |vars |cons |rows |cuts |sepa|confs|strbr|  dualbound   | primalbound  |  gap   | compl. 
p 1.1s|     1 |     0 |     0 |     - |   locks|   0 |5050 |5153 |5152 |   0 |  0 |   0 |   0 | 0.000000e+00 | 3.135868e+06 |    Inf | unknown
p 2.7s|     1 |     0 |   336 |     - | vbounds|   0 |5050 |5262 |5152 |   0 |  0 | 112 |   0 | 0.000000e+00 | 3.497176e+05 |    Inf | unknown
  3.8s|     1 |     0 |  3292 |     - |    70M |   0 |5050 |5262 |5152 |   0 |  0 | 112 |   0 | 2.490285e+05 | 3.497176e+05 |  40.43%| unknown
  5.4s|     1 |     0 |  5208 |     - |    72M |   0 |5050 |5262 |5153 |   1 |  1 | 112 |   0 | 2.558148e+05 | 3.497176e+05 |  36.71%| unknown
  5.7s|     1 |     0 |  5427 |     - |    74M |   0 |5050 |5262 |5154 |   2 |  2 | 112 |   0 | 2.559488e+05 | 3.497176e+05 |  36.64%| unknown
  6.0s|     1 |     0 |  5562 |     - |    74M |   0 |5050 |5262 |5155 |   3 |  3 | 112 |   0 | 2.560063e+05 | 3.497176e+05 |  36.61%| unknown
  6.6s|     1 |     0 |  6264 |     - |    75M |   0 |5050 |5262 |5156 |   4 |  4 | 112 |   0 | 2.565881e+05 | 3.497176e+05 |  36.30%| unknown
  7.1s|     1 |     0 |  6536 |     - |    76M |   0 |5050 |5262 |5158 |   6 |  5 | 112 |   0 | 2.566758e+05 | 3.497176e+05 |  36.25%| unknown
  7.5s|     1 |     0 |  6539 |     - |    76M |   0 |5050 |5262 |5159 |   7 |  6 | 112 |   0 | 2.566775e+05 | 3.497176e+05 |  36.25%| unknown
  8.1s|     1 |     0 |  6781 |     - |    77M |   0 |5050 |5262 |5161 |   9 |  7 | 112 |   0 | 2.568997e+05 | 3.497176e+05 |  36.13%| unknown
  8.7s|     1 |     0 |  7091 |     - |    77M |   0 |5050 |5262 |5162 |  10 |  8 | 112 |   0 | 2.569853e+05 | 3.497176e+05 |  36.08%| unknown
  9.3s|     1 |     0 |  7295 |     - |    78M |   0 |5050 |5262 |5164 |  12 |  9 | 112 |   0 | 2.570177e+05 | 3.497176e+05 |  36.07%| unknown
  9.7s|     1 |     0 |  7434 |     - |    79M |   0 |5050 |5262 |5166 |  14 | 10 | 112 |   0 | 2.570304e+05 | 3.497176e+05 |  36.06%| unknown
 10.0s|     1 |     0 |  7606 |     - |    79M |   0 |5050 |5262 |5167 |  15 | 11 | 112 |   0 | 2.570702e+05 | 3.497176e+05 |  36.04%| unknown
 10.5s|     1 |     0 |  7833 |     - |    80M |   0 |5050 |5262 |5168 |  16 | 12 | 112 |   0 | 2.571399e+05 | 3.497176e+05 |  36.00%| unknown
 time | node  | left  |LP iter|LP it/n|mem/heur|mdpt |vars |cons |rows |cuts |sepa|confs|strbr|  dualbound   | primalbound  |  gap   | compl. 
 10.7s|     1 |     0 |  7880 |     - |    80M |   0 |5050 |5262 |5169 |  17 | 13 | 112 |   0 | 2.571437e+05 | 3.497176e+05 |  36.00%| unknown
 11.0s|     1 |     0 |  7927 |     - |    81M |   0 |5050 |5262 |5170 |  18 | 14 | 112 |   0 | 2.571496e+05 | 3.497176e+05 |  36.00%| unknown
 11.4s|     1 |     0 |  7944 |     - |    82M |   0 |5050 |5251 |5172 |  20 | 15 | 112 |   0 | 2.571514e+05 | 3.497176e+05 |  36.00%| unknown
 11.6s|     1 |     0 |  8060 |     - |    82M |   0 |5050 |5251 |5172 |  21 | 16 | 112 |   0 | 2.571807e+05 | 3.497176e+05 |  35.98%| unknown
 11.8s|     1 |     0 |  8078 |     - |    82M |   0 |5050 |5251 |5173 |  22 | 17 | 112 |   0 | 2.571830e+05 | 3.497176e+05 |  35.98%| unknown
 12.0s|     1 |     0 |  8093 |     - |    83M |   0 |5050 |5251 |5174 |  23 | 18 | 112 |   0 | 2.571901e+05 | 3.497176e+05 |  35.98%| unknown
 12.2s|     1 |     0 |  8139 |     - |    83M |   0 |5050 |5251 |5175 |  24 | 19 | 112 |   0 | 2.572057e+05 | 3.497176e+05 |  35.97%| unknown
 12.5s|     1 |     0 |  8382 |     - |    84M |   0 |5050 |5251 |5178 |  27 | 20 | 112 |   0 | 2.572090e+05 | 3.497176e+05 |  35.97%| unknown
 12.7s|     1 |     0 |  8393 |     - |    84M |   0 |5050 |5251 |5181 |  30 | 21 | 112 |   0 | 2.572098e+05 | 3.497176e+05 |  35.97%| unknown
 12.9s|     1 |     0 |  8394 |     - |    84M |   0 |5050 |5251 |5180 |  31 | 22 | 112 |   0 | 2.572099e+05 | 3.497176e+05 |  35.97%| unknown
L32.0s|     1 |     0 | 38101 |     - |    rens|   0 |5050 |5298 |5180 |  31 | 24 | 159 |   0 | 2.572099e+05 | 2.601889e+05 |   1.16%| unknown
 32.2s|     1 |     0 | 38101 |     - |    88M |   0 |5050 |5298 |5180 |  31 | 24 | 159 |   0 | 2.572099e+05 | 2.601889e+05 |   1.16%| unknown
 32.2s|     1 |     0 | 38101 |     - |    88M |   0 |5050 |5298 |4564 |  31 | 24 | 159 |   0 | 2.572099e+05 | 2.601889e+05 |   1.16%| unknown
 32.4s|     1 |     0 | 38105 |     - |    88M |   0 |5050 |4682 |4559 |  32 | 25 | 159 |   0 | 2.572099e+05 | 2.601889e+05 |   1.16%| unknown
(run 1, node 1) restarting after 879 global fixings of integer variables

(restart) converted 21 cuts from the global cut pool into linear constraints

presolving:
(round 1, fast)       879 del vars, 55 del conss, 0 add conss, 0 chg bounds, 0 chg sides, 5811 chg coeffs, 0 upgd conss, 0 impls, 4129 clqs
   (32.5s) running MILP presolver
   (32.5s) MILP presolver found nothing
(round 2, exhaustive) 879 del vars, 55 del conss, 0 add conss, 0 chg bounds, 0 chg sides, 5811 chg coeffs, 14 upgd conss, 0 impls, 4129 clqs
presolving (3 rounds: 3 fast, 2 medium, 2 exhaustive):
 879 deleted vars, 56 deleted constraints, 0 added constraints, 0 tightened bounds, 0 added holes, 1 changed sides, 5812 changed coefficients
 0 implications, 4129 cliques
presolved problem has 4171 variables (4171 bin, 0 int, 0 impl, 0 cont) and 4384 constraints
     57 constraints of type <knapsack>
   4129 constraints of type <setppc>
      8 constraints of type <linear>
    190 constraints of type <logicor>
Presolving Time: 0.99
transformed 2/4 original solutions to the transformed problem space

 time | node  | left  |LP iter|LP it/n|mem/heur|mdpt |vars |cons |rows |cuts |sepa|confs|strbr|  dualbound   | primalbound  |  gap   | compl. 
 33.5s|     1 |     0 | 41379 |     - |    98M |   0 |4171 |4384 |4294 |   0 |  0 | 159 |   0 | 2.572099e+05 | 2.601889e+05 |   1.16%| unknown
 33.5s|     1 |     0 | 41379 |     - |    98M |   0 |4171 |4384 |4029 |   0 |  0 | 159 |   0 | 2.572099e+05 | 2.601889e+05 |   1.16%| unknown
 34.4s|     1 |     0 | 42853 |     - |    99M |   0 |4171 |4119 |4029 |   2 |  1 | 159 |   0 | 2.572099e+05 | 2.601889e+05 |   1.16%| unknown
 35.4s|     1 |     0 | 44620 |     - |    99M |   0 |4171 |4118 |4030 |   3 |  2 | 159 |   0 | 2.572168e+05 | 2.601889e+05 |   1.16%| unknown
 35.4s|     1 |     0 | 44620 |     - |    99M |   0 |4171 |4118 |3893 |   3 |  2 | 159 |   0 | 2.572168e+05 | 2.601889e+05 |   1.16%| unknown
 35.8s|     1 |     0 | 44646 |     - |   100M |   0 |4171 |3977 |3892 |   4 |  3 | 159 |   0 | 2.572182e+05 | 2.601889e+05 |   1.15%| unknown
 36.0s|     1 |     0 | 44649 |     - |   100M |   0 |4171 |3977 |3893 |   5 |  5 | 159 |   0 | 2.572191e+05 | 2.601889e+05 |   1.15%| unknown
 36.3s|     1 |     0 | 44653 |     - |   100M |   0 |4171 |3977 |3895 |   7 |  6 | 159 |   0 | 2.572192e+05 | 2.601889e+05 |   1.15%| unknown
 36.6s|     1 |     0 | 44656 |     - |   100M |   0 |4171 |3977 |3897 |   9 |  7 | 159 |   0 | 2.572192e+05 | 2.601889e+05 |   1.15%| unknown
 36.9s|     1 |     0 | 44657 |     - |   101M |   0 |4171 |3977 |3898 |  10 |  8 | 159 |   0 | 2.572193e+05 | 2.601889e+05 |   1.15%| unknown
(run 2, node 1) restarting after 522 global fixings of integer variables

(restart) converted 10 cuts from the global cut pool into linear constraints

presolving:
(round 1, fast)       522 del vars, 40 del conss, 0 add conss, 0 chg bounds, 0 chg sides, 1254 chg coeffs, 0 upgd conss, 0 impls, 3611 clqs
(round 2, exhaustive) 522 del vars, 40 del conss, 0 add conss, 0 chg bounds, 0 chg sides, 1254 chg coeffs, 8 upgd conss, 0 impls, 3611 clqs
presolving (3 rounds: 3 fast, 2 medium, 2 exhaustive):
 522 deleted vars, 40 deleted constraints, 0 added constraints, 0 tightened bounds, 0 added holes, 0 changed sides, 1255 changed coefficients
 0 implications, 3611 cliques
presolved problem has 3649 variables (3649 bin, 0 int, 0 impl, 0 cont) and 3828 constraints
     61 constraints of type <knapsack>
   3611 constraints of type <setppc>
     10 constraints of type <linear>
    146 constraints of type <logicor>
Presolving Time: 1.20
transformed 4/6 original solutions to the transformed problem space

 time | node  | left  |LP iter|LP it/n|mem/heur|mdpt |vars |cons |rows |cuts |sepa|confs|strbr|  dualbound   | primalbound  |  gap   | compl. 
 39.1s|     1 |     0 | 48794 |     - |   102M |   0 |3649 |3828 |3782 |   0 |  0 | 159 |   0 | 2.572193e+05 | 2.601889e+05 |   1.15%| unknown
 39.1s|     1 |     0 | 48794 |     - |   102M |   0 |3649 |3828 |3714 |   0 |  0 | 159 |   0 | 2.572193e+05 | 2.601889e+05 |   1.15%| unknown
 39.3s|     1 |     0 | 48797 |     - |   103M |   0 |3649 |3760 |3714 |   1 |  1 | 159 |   0 | 2.572194e+05 | 2.601889e+05 |   1.15%| unknown
 39.6s|     1 |     0 | 48800 |     - |   103M |   0 |3649 |3759 |3715 |   2 |  2 | 159 |   0 | 2.572196e+05 | 2.601889e+05 |   1.15%| unknown
 47.4s|     1 |     2 | 50104 |     - |   103M |   0 |3649 |3727 |3715 |   2 |  4 | 159 |  26 | 2.578939e+05 | 2.601889e+05 |   0.89%| unknown
(run 3, node 1) restarting after 101 global fixings of integer variables

(restart) converted 2 cuts from the global cut pool into linear constraints

presolving:
(round 1, fast)       101 del vars, 1 del conss, 0 add conss, 0 chg bounds, 0 chg sides, 225 chg coeffs, 0 upgd conss, 0 impls, 3511 clqs
(round 2, exhaustive) 101 del vars, 2 del conss, 0 add conss, 0 chg bounds, 0 chg sides, 225 chg coeffs, 2 upgd conss, 0 impls, 3511 clqs
   (47.6s) running MILP presolver
   (47.7s) MILP presolver found nothing
presolving (3 rounds: 3 fast, 2 medium, 2 exhaustive):
 101 deleted vars, 2 deleted constraints, 0 added constraints, 0 tightened bounds, 0 added holes, 0 changed sides, 225 changed coefficients
 0 implications, 3511 cliques
presolved problem has 3548 variables (3548 bin, 0 int, 0 impl, 0 cont) and 3727 constraints
     62 constraints of type <knapsack>
   3511 constraints of type <setppc>
     10 constraints of type <linear>
    144 constraints of type <logicor>
Presolving Time: 1.43
transformed 5/7 original solutions to the transformed problem space

 time | node  | left  |LP iter|LP it/n|mem/heur|mdpt |vars |cons |rows |cuts |sepa|confs|strbr|  dualbound   | primalbound  |  gap   | compl. 
 49.1s|     1 |     0 | 55278 |     - |   104M |   0 |3548 |3727 |3683 |   0 |  0 | 159 |  26 | 2.578939e+05 | 2.601889e+05 |   0.89%| unknown
 49.3s|     1 |     0 | 55281 |     - |   105M |   0 |3548 |3727 |3684 |   1 |  2 | 159 |  26 | 2.578939e+05 | 2.601889e+05 |   0.89%| unknown
 56.0s|     1 |     2 | 55281 |     - |   106M |   0 |3548 |3727 |3684 |   1 |  4 | 159 |  45 | 2.579748e+05 | 2.601889e+05 |   0.86%| unknown
* 109s|    18 |     7 | 65469 |2076.8 |strongbr|  12 |3548 |3802 |3677 |  23 |  1 | 234 | 387 | 2.579748e+05 | 2.601800e+05 |   0.85%|  29.88%
r 114s|    57 |     9 | 70516 | 789.5 |ziroundi|  20 |3548 |3802 |3670 |  60 |  1 | 234 | 414 | 2.589322e+05 | 2.590617e+05 |   0.05%|  59.18%
* 115s|    97 |    11 | 71895 | 484.5 |    LP  |  20 |3548 |3795 |3673 |  75 |  2 | 234 | 414 | 2.589414e+05 | 2.590467e+05 |   0.04%|  69.66%
  116s|   100 |     8 | 72045 | 471.7 |   115M |  20 |3548 |3794 |3671 |  75 |  1 | 234 | 414 | 2.589414e+05 | 2.590467e+05 |   0.04%|  74.41%

SCIP Status        : problem is solved [optimal solution found]
Solving Time (sec) : 117.53
Solving Nodes      : 142 (total of 145 nodes in 4 runs)
Primal Bound       : +2.59046724463650e+05 (39 solutions)
Dual Bound         : +2.59046724463650e+05
Gap                : 0.00 %
Solve Status: optimal
Solve Time: 117.54 seconds
